p cnf 80 1296
-17 -18 0
-17 -19 0
-17 -20 0
-17 -21 0
-17 -22 0
-17 -23 0
-17 -24 0
-17 -25 0
-17 -26 0
-17 -27 0
-17 -28 0
-17 -29 0
-17 -30 0
-17 -31 0
-17 -32 0
-18 -19 0
-18 -20 0
-18 -21 0
-18 -22 0
-18 -23 0
-18 -24 0
-18 -25 0
-18 -26 0
-18 -27 0
-18 -28 0
-18 -29 0
-18 -30 0
-18 -31 0
-18 -32 0
-19 -20 0
-19 -21 0
-19 -22 0
-19 -23 0
-19 -24 0
-19 -25 0
-19 -26 0
-19 -27 0
-19 -28 0
-19 -29 0
-19 -30 0
-19 -31 0
-19 -32 0
-20 -21 0
-20 -22 0
-20 -23 0
-20 -24 0
-20 -25 0
-20 -26 0
-20 -27 0
-20 -28 0
-20 -29 0
-20 -30 0
-20 -31 0
-20 -32 0
-21 -22 0
-21 -23 0
-21 -24 0
-21 -25 0
-21 -26 0
-21 -27 0
-21 -28 0
-21 -29 0
-21 -30 0
-21 -31 0
-21 -32 0
-22 -23 0
-22 -24 0
-22 -25 0
-22 -26 0
-22 -27 0
-22 -28 0
-22 -29 0
-22 -30 0
-22 -31 0
-22 -32 0
-23 -24 0
-23 -25 0
-23 -26 0
-23 -27 0
-23 -28 0
-23 -29 0
-23 -30 0
-23 -31 0
-23 -32 0
-24 -25 0
-24 -26 0
-24 -27 0
-24 -28 0
-24 -29 0
-24 -30 0
-24 -31 0
-24 -32 0
-25 -26 0
-25 -27 0
-25 -28 0
-25 -29 0
-25 -30 0
-25 -31 0
-25 -32 0
-26 -27 0
-26 -28 0
-26 -29 0
-26 -30 0
-26 -31 0
-26 -32 0
-27 -28 0
-27 -29 0
-27 -30 0
-27 -31 0
-27 -32 0
-28 -29 0
-28 -30 0
-28 -31 0
-28 -32 0
-29 -30 0
-29 -31 0
-29 -32 0
-30 -31 0
-30 -32 0
-31 -32 0
-33 -34 0
-33 -35 0
-33 -36 0
-33 -37 0
-33 -38 0
-33 -39 0
-33 -40 0
-33 -41 0
-33 -42 0
-33 -43 0
-33 -44 0
-33 -45 0
-33 -46 0
-33 -47 0
-33 -48 0
-34 -35 0
-34 -36 0
-34 -37 0
-34 -38 0
-34 -39 0
-34 -40 0
-34 -41 0
-34 -42 0
-34 -43 0
-34 -44 0
-34 -45 0
-34 -46 0
-34 -47 0
-34 -48 0
-35 -36 0
-35 -37 0
-35 -38 0
-35 -39 0
-35 -40 0
-35 -41 0
-35 -42 0
-35 -43 0
-35 -44 0
-35 -45 0
-35 -46 0
-35 -47 0
-35 -48 0
-36 -37 0
-36 -38 0
-36 -39 0
-36 -40 0
-36 -41 0
-36 -42 0
-36 -43 0
-36 -44 0
-36 -45 0
-36 -46 0
-36 -47 0
-36 -48 0
-37 -38 0
-37 -39 0
-37 -40 0
-37 -41 0
-37 -42 0
-37 -43 0
-37 -44 0
-37 -45 0
-37 -46 0
-37 -47 0
-37 -48 0
-38 -39 0
-38 -40 0
-38 -41 0
-38 -42 0
-38 -43 0
-38 -44 0
-38 -45 0
-38 -46 0
-38 -47 0
-38 -48 0
-39 -40 0
-39 -41 0
-39 -42 0
-39 -43 0
-39 -44 0
-39 -45 0
-39 -46 0
-39 -47 0
-39 -48 0
-40 -41 0
-40 -42 0
-40 -43 0
-40 -44 0
-40 -45 0
-40 -46 0
-40 -47 0
-40 -48 0
-41 -42 0
-41 -43 0
-41 -44 0
-41 -45 0
-41 -46 0
-41 -47 0
-41 -48 0
-42 -43 0
-42 -44 0
-42 -45 0
-42 -46 0
-42 -47 0
-42 -48 0
-43 -44 0
-43 -45 0
-43 -46 0
-43 -47 0
-43 -48 0
-44 -45 0
-44 -46 0
-44 -47 0
-44 -48 0
-45 -46 0
-45 -47 0
-45 -48 0
-46 -47 0
-46 -48 0
-47 -48 0
-49 -50 0
-49 -51 0
-49 -52 0
-49 -53 0
-49 -54 0
-49 -55 0
-49 -56 0
-49 -57 0
-49 -58 0
-49 -59 0
-49 -60 0
-49 -61 0
-49 -62 0
-49 -63 0
-49 -64 0
-50 -51 0
-50 -52 0
-50 -53 0
-50 -54 0
-50 -55 0
-50 -56 0
-50 -57 0
-50 -58 0
-50 -59 0
-50 -60 0
-50 -61 0
-50 -62 0
-50 -63 0
-50 -64 0
-51 -52 0
-51 -53 0
-51 -54 0
-51 -55 0
-51 -56 0
-51 -57 0
-51 -58 0
-51 -59 0
-51 -60 0
-51 -61 0
-51 -62 0
-51 -63 0
-51 -64 0
-52 -53 0
-52 -54 0
-52 -55 0
-52 -56 0
-52 -57 0
-52 -58 0
-52 -59 0
-52 -60 0
-52 -61 0
-52 -62 0
-52 -63 0
-52 -64 0
-53 -54 0
-53 -55 0
-53 -56 0
-53 -57 0
-53 -58 0
-53 -59 0
-53 -60 0
-53 -61 0
-53 -62 0
-53 -63 0
-53 -64 0
-54 -55 0
-54 -56 0
-54 -57 0
-54 -58 0
-54 -59 0
-54 -60 0
-54 -61 0
-54 -62 0
-54 -63 0
-54 -64 0
-55 -56 0
-55 -57 0
-55 -58 0
-55 -59 0
-55 -60 0
-55 -61 0
-55 -62 0
-55 -63 0
-55 -64 0
-56 -57 0
-56 -58 0
-56 -59 0
-56 -60 0
-56 -61 0
-56 -62 0
-56 -63 0
-56 -64 0
-57 -58 0
-57 -59 0
-57 -60 0
-57 -61 0
-57 -62 0
-57 -63 0
-57 -64 0
-58 -59 0
-58 -60 0
-58 -61 0
-58 -62 0
-58 -63 0
-58 -64 0
-59 -60 0
-59 -61 0
-59 -62 0
-59 -63 0
-59 -64 0
-60 -61 0
-60 -62 0
-60 -63 0
-60 -64 0
-61 -62 0
-61 -63 0
-61 -64 0
-62 -63 0
-62 -64 0
-63 -64 0
-65 -66 0
-65 -67 0
-65 -68 0
-65 -69 0
-65 -70 0
-65 -71 0
-65 -72 0
-65 -73 0
-65 -74 0
-65 -75 0
-65 -76 0
-65 -77 0
-65 -78 0
-65 -79 0
-65 -80 0
-66 -67 0
-66 -68 0
-66 -69 0
-66 -70 0
-66 -71 0
-66 -72 0
-66 -73 0
-66 -74 0
-66 -75 0
-66 -76 0
-66 -77 0
-66 -78 0
-66 -79 0
-66 -80 0
-67 -68 0
-67 -69 0
-67 -70 0
-67 -71 0
-67 -72 0
-67 -73 0
-67 -74 0
-67 -75 0
-67 -76 0
-67 -77 0
-67 -78 0
-67 -79 0
-67 -80 0
-68 -69 0
-68 -70 0
-68 -71 0
-68 -72 0
-68 -73 0
-68 -74 0
-68 -75 0
-68 -76 0
-68 -77 0
-68 -78 0
-68 -79 0
-68 -80 0
-69 -70 0
-69 -71 0
-69 -72 0
-69 -73 0
-69 -74 0
-69 -75 0
-69 -76 0
-69 -77 0
-69 -78 0
-69 -79 0
-69 -80 0
-70 -71 0
-70 -72 0
-70 -73 0
-70 -74 0
-70 -75 0
-70 -76 0
-70 -77 0
-70 -78 0
-70 -79 0
-70 -80 0
-71 -72 0
-71 -73 0
-71 -74 0
-71 -75 0
-71 -76 0
-71 -77 0
-71 -78 0
-71 -79 0
-71 -80 0
-72 -73 0
-72 -74 0
-72 -75 0
-72 -76 0
-72 -77 0
-72 -78 0
-72 -79 0
-72 -80 0
-73 -74 0
-73 -75 0
-73 -76 0
-73 -77 0
-73 -78 0
-73 -79 0
-73 -80 0
-74 -75 0
-74 -76 0
-74 -77 0
-74 -78 0
-74 -79 0
-74 -80 0
-75 -76 0
-75 -77 0
-75 -78 0
-75 -79 0
-75 -80 0
-76 -77 0
-76 -78 0
-76 -79 0
-76 -80 0
-77 -78 0
-77 -79 0
-77 -80 0
-78 -79 0
-78 -80 0
-79 -80 0
-18 -33 0
-19 -33 0
-20 -33 0
-21 -33 0
-22 -33 0
-23 -33 0
-24 -33 0
-25 -33 0
-26 -33 0
-27 -33 0
-28 -33 0
-29 -33 0
-30 -33 0
-31 -33 0
-32 -33 0
-19 -34 0
-20 -34 0
-21 -34 0
-22 -34 0
-23 -34 0
-24 -34 0
-25 -34 0
-26 -34 0
-27 -34 0
-28 -34 0
-29 -34 0
-30 -34 0
-31 -34 0
-32 -34 0
-20 -35 0
-21 -35 0
-22 -35 0
-23 -35 0
-24 -35 0
-25 -35 0
-26 -35 0
-27 -35 0
-28 -35 0
-29 -35 0
-30 -35 0
-31 -35 0
-32 -35 0
-21 -36 0
-22 -36 0
-23 -36 0
-24 -36 0
-25 -36 0
-26 -36 0
-27 -36 0
-28 -36 0
-29 -36 0
-30 -36 0
-31 -36 0
-32 -36 0
-22 -37 0
-23 -37 0
-24 -37 0
-25 -37 0
-26 -37 0
-27 -37 0
-28 -37 0
-29 -37 0
-30 -37 0
-31 -37 0
-32 -37 0
-23 -38 0
-24 -38 0
-25 -38 0
-26 -38 0
-27 -38 0
-28 -38 0
-29 -38 0
-30 -38 0
-31 -38 0
-32 -38 0
-24 -39 0
-25 -39 0
-26 -39 0
-27 -39 0
-28 -39 0
-29 -39 0
-30 -39 0
-31 -39 0
-32 -39 0
-25 -40 0
-26 -40 0
-27 -40 0
-28 -40 0
-29 -40 0
-30 -40 0
-31 -40 0
-32 -40 0
-26 -41 0
-27 -41 0
-28 -41 0
-29 -41 0
-30 -41 0
-31 -41 0
-32 -41 0
-27 -42 0
-28 -42 0
-29 -42 0
-30 -42 0
-31 -42 0
-32 -42 0
-28 -43 0
-29 -43 0
-30 -43 0
-31 -43 0
-32 -43 0
-29 -44 0
-30 -44 0
-31 -44 0
-32 -44 0
-30 -45 0
-31 -45 0
-32 -45 0
-31 -46 0
-32 -46 0
-32 -47 0
-18 -49 0
-19 -49 0
-20 -49 0
-21 -49 0
-22 -49 0
-23 -49 0
-24 -49 0
-25 -49 0
-26 -49 0
-27 -49 0
-28 -49 0
-29 -49 0
-30 -49 0
-31 -49 0
-32 -49 0
-19 -50 0
-20 -50 0
-21 -50 0
-22 -50 0
-23 -50 0
-24 -50 0
-25 -50 0
-26 -50 0
-27 -50 0
-28 -50 0
-29 -50 0
-30 -50 0
-31 -50 0
-32 -50 0
-20 -51 0
-21 -51 0
-22 -51 0
-23 -51 0
-24 -51 0
-25 -51 0
-26 -51 0
-27 -51 0
-28 -51 0
-29 -51 0
-30 -51 0
-31 -51 0
-32 -51 0
-21 -52 0
-22 -52 0
-23 -52 0
-24 -52 0
-25 -52 0
-26 -52 0
-27 -52 0
-28 -52 0
-29 -52 0
-30 -52 0
-31 -52 0
-32 -52 0
-22 -53 0
-23 -53 0
-24 -53 0
-25 -53 0
-26 -53 0
-27 -53 0
-28 -53 0
-29 -53 0
-30 -53 0
-31 -53 0
-32 -53 0
-23 -54 0
-24 -54 0
-25 -54 0
-26 -54 0
-27 -54 0
-28 -54 0
-29 -54 0
-30 -54 0
-31 -54 0
-32 -54 0
-24 -55 0
-25 -55 0
-26 -55 0
-27 -55 0
-28 -55 0
-29 -55 0
-30 -55 0
-31 -55 0
-32 -55 0
-25 -56 0
-26 -56 0
-27 -56 0
-28 -56 0
-29 -56 0
-30 -56 0
-31 -56 0
-32 -56 0
-26 -57 0
-27 -57 0
-28 -57 0
-29 -57 0
-30 -57 0
-31 -57 0
-32 -57 0
-27 -58 0
-28 -58 0
-29 -58 0
-30 -58 0
-31 -58 0
-32 -58 0
-28 -59 0
-29 -59 0
-30 -59 0
-31 -59 0
-32 -59 0
-29 -60 0
-30 -60 0
-31 -60 0
-32 -60 0
-30 -61 0
-31 -61 0
-32 -61 0
-31 -62 0
-32 -62 0
-32 -63 0
-18 -65 0
-19 -65 0
-20 -65 0
-21 -65 0
-22 -65 0
-23 -65 0
-24 -65 0
-25 -65 0
-26 -65 0
-27 -65 0
-28 -65 0
-29 -65 0
-30 -65 0
-31 -65 0
-32 -65 0
-19 -66 0
-20 -66 0
-21 -66 0
-22 -66 0
-23 -66 0
-24 -66 0
-25 -66 0
-26 -66 0
-27 -66 0
-28 -66 0
-29 -66 0
-30 -66 0
-31 -66 0
-32 -66 0
-20 -67 0
-21 -67 0
-22 -67 0
-23 -67 0
-24 -67 0
-25 -67 0
-26 -67 0
-27 -67 0
-28 -67 0
-29 -67 0
-30 -67 0
-31 -67 0
-32 -67 0
-21 -68 0
-22 -68 0
-23 -68 0
-24 -68 0
-25 -68 0
-26 -68 0
-27 -68 0
-28 -68 0
-29 -68 0
-30 -68 0
-31 -68 0
-32 -68 0
-22 -69 0
-23 -69 0
-24 -69 0
-25 -69 0
-26 -69 0
-27 -69 0
-28 -69 0
-29 -69 0
-30 -69 0
-31 -69 0
-32 -69 0
-23 -70 0
-24 -70 0
-25 -70 0
-26 -70 0
-27 -70 0
-28 -70 0
-29 -70 0
-30 -70 0
-31 -70 0
-32 -70 0
-24 -71 0
-25 -71 0
-26 -71 0
-27 -71 0
-28 -71 0
-29 -71 0
-30 -71 0
-31 -71 0
-32 -71 0
-25 -72 0
-26 -72 0
-27 -72 0
-28 -72 0
-29 -72 0
-30 -72 0
-31 -72 0
-32 -72 0
-26 -73 0
-27 -73 0
-28 -73 0
-29 -73 0
-30 -73 0
-31 -73 0
-32 -73 0
-27 -74 0
-28 -74 0
-29 -74 0
-30 -74 0
-31 -74 0
-32 -74 0
-28 -75 0
-29 -75 0
-30 -75 0
-31 -75 0
-32 -75 0
-29 -76 0
-30 -76 0
-31 -76 0
-32 -76 0
-30 -77 0
-31 -77 0
-32 -77 0
-31 -78 0
-32 -78 0
-32 -79 0
-34 -49 0
-35 -49 0
-36 -49 0
-37 -49 0
-38 -49 0
-39 -49 0
-40 -49 0
-41 -49 0
-42 -49 0
-43 -49 0
-44 -49 0
-45 -49 0
-46 -49 0
-47 -49 0
-48 -49 0
-35 -50 0
-36 -50 0
-37 -50 0
-38 -50 0
-39 -50 0
-40 -50 0
-41 -50 0
-42 -50 0
-43 -50 0
-44 -50 0
-45 -50 0
-46 -50 0
-47 -50 0
-48 -50 0
-36 -51 0
-37 -51 0
-38 -51 0
-39 -51 0
-40 -51 0
-41 -51 0
-42 -51 0
-43 -51 0
-44 -51 0
-45 -51 0
-46 -51 0
-47 -51 0
-48 -51 0
-37 -52 0
-38 -52 0
-39 -52 0
-40 -52 0
-41 -52 0
-42 -52 0
-43 -52 0
-44 -52 0
-45 -52 0
-46 -52 0
-47 -52 0
-48 -52 0
-38 -53 0
-39 -53 0
-40 -53 0
-41 -53 0
-42 -53 0
-43 -53 0
-44 -53 0
-45 -53 0
-46 -53 0
-47 -53 0
-48 -53 0
-39 -54 0
-40 -54 0
-41 -54 0
-42 -54 0
-43 -54 0
-44 -54 0
-45 -54 0
-46 -54 0
-47 -54 0
-48 -54 0
-40 -55 0
-41 -55 0
-42 -55 0
-43 -55 0
-44 -55 0
-45 -55 0
-46 -55 0
-47 -55 0
-48 -55 0
-41 -56 0
-42 -56 0
-43 -56 0
-44 -56 0
-45 -56 0
-46 -56 0
-47 -56 0
-48 -56 0
-42 -57 0
-43 -57 0
-44 -57 0
-45 -57 0
-46 -57 0
-47 -57 0
-48 -57 0
-43 -58 0
-44 -58 0
-45 -58 0
-46 -58 0
-47 -58 0
-48 -58 0
-44 -59 0
-45 -59 0
-46 -59 0
-47 -59 0
-48 -59 0
-45 -60 0
-46 -60 0
-47 -60 0
-48 -60 0
-46 -61 0
-47 -61 0
-48 -61 0
-47 -62 0
-48 -62 0
-48 -63 0
-34 -65 0
-35 -65 0
-36 -65 0
-37 -65 0
-38 -65 0
-39 -65 0
-40 -65 0
-41 -65 0
-42 -65 0
-43 -65 0
-44 -65 0
-45 -65 0
-46 -65 0
-47 -65 0
-48 -65 0
-35 -66 0
-36 -66 0
-37 -66 0
-38 -66 0
-39 -66 0
-40 -66 0
-41 -66 0
-42 -66 0
-43 -66 0
-44 -66 0
-45 -66 0
-46 -66 0
-47 -66 0
-48 -66 0
-36 -67 0
-37 -67 0
-38 -67 0
-39 -67 0
-40 -67 0
-41 -67 0
-42 -67 0
-43 -67 0
-44 -67 0
-45 -67 0
-46 -67 0
-47 -67 0
-48 -67 0
-37 -68 0
-38 -68 0
-39 -68 0
-40 -68 0
-41 -68 0
-42 -68 0
-43 -68 0
-44 -68 0
-45 -68 0
-46 -68 0
-47 -68 0
-48 -68 0
-38 -69 0
-39 -69 0
-40 -69 0
-41 -69 0
-42 -69 0
-43 -69 0
-44 -69 0
-45 -69 0
-46 -69 0
-47 -69 0
-48 -69 0
-39 -70 0
-40 -70 0
-41 -70 0
-42 -70 0
-43 -70 0
-44 -70 0
-45 -70 0
-46 -70 0
-47 -70 0
-48 -70 0
-40 -71 0
-41 -71 0
-42 -71 0
-43 -71 0
-44 -71 0
-45 -71 0
-46 -71 0
-47 -71 0
-48 -71 0
-41 -72 0
-42 -72 0
-43 -72 0
-44 -72 0
-45 -72 0
-46 -72 0
-47 -72 0
-48 -72 0
-42 -73 0
-43 -73 0
-44 -73 0
-45 -73 0
-46 -73 0
-47 -73 0
-48 -73 0
-43 -74 0
-44 -74 0
-45 -74 0
-46 -74 0
-47 -74 0
-48 -74 0
-44 -75 0
-45 -75 0
-46 -75 0
-47 -75 0
-48 -75 0
-45 -76 0
-46 -76 0
-47 -76 0
-48 -76 0
-46 -77 0
-47 -77 0
-48 -77 0
-47 -78 0
-48 -78 0
-48 -79 0
-50 -65 0
-51 -65 0
-52 -65 0
-53 -65 0
-54 -65 0
-55 -65 0
-56 -65 0
-57 -65 0
-58 -65 0
-59 -65 0
-60 -65 0
-61 -65 0
-62 -65 0
-63 -65 0
-64 -65 0
-51 -66 0
-52 -66 0
-53 -66 0
-54 -66 0
-55 -66 0
-56 -66 0
-57 -66 0
-58 -66 0
-59 -66 0
-60 -66 0
-61 -66 0
-62 -66 0
-63 -66 0
-64 -66 0
-52 -67 0
-53 -67 0
-54 -67 0
-55 -67 0
-56 -67 0
-57 -67 0
-58 -67 0
-59 -67 0
-60 -67 0
-61 -67 0
-62 -67 0
-63 -67 0
-64 -67 0
-53 -68 0
-54 -68 0
-55 -68 0
-56 -68 0
-57 -68 0
-58 -68 0
-59 -68 0
-60 -68 0
-61 -68 0
-62 -68 0
-63 -68 0
-64 -68 0
-54 -69 0
-55 -69 0
-56 -69 0
-57 -69 0
-58 -69 0
-59 -69 0
-60 -69 0
-61 -69 0
-62 -69 0
-63 -69 0
-64 -69 0
-55 -70 0
-56 -70 0
-57 -70 0
-58 -70 0
-59 -70 0
-60 -70 0
-61 -70 0
-62 -70 0
-63 -70 0
-64 -70 0
-56 -71 0
-57 -71 0
-58 -71 0
-59 -71 0
-60 -71 0
-61 -71 0
-62 -71 0
-63 -71 0
-64 -71 0
-57 -72 0
-58 -72 0
-59 -72 0
-60 -72 0
-61 -72 0
-62 -72 0
-63 -72 0
-64 -72 0
-58 -73 0
-59 -73 0
-60 -73 0
-61 -73 0
-62 -73 0
-63 -73 0
-64 -73 0
-59 -74 0
-60 -74 0
-61 -74 0
-62 -74 0
-63 -74 0
-64 -74 0
-60 -75 0
-61 -75 0
-62 -75 0
-63 -75 0
-64 -75 0
-61 -76 0
-62 -76 0
-63 -76 0
-64 -76 0
-62 -77 0
-63 -77 0
-64 -77 0
-63 -78 0
-64 -78 0
-64 -79 0
-17 1 0
-18 2 0
-19 3 0
-20 4 0
-21 5 0
-22 6 0
-23 7 0
-24 8 0
-25 9 0
-26 10 0
-27 11 0
-28 12 0
-29 13 0
-30 14 0
-31 15 0
-32 16 0
-33 1 0
-34 2 0
-35 3 0
-36 4 0
-37 5 0
-38 6 0
-39 7 0
-40 8 0
-41 9 0
-42 10 0
-43 11 0
-44 12 0
-45 13 0
-46 14 0
-47 15 0
-48 16 0
-49 1 0
-50 2 0
-51 3 0
-52 4 0
-53 5 0
-54 6 0
-55 7 0
-56 8 0
-57 9 0
-58 10 0
-59 11 0
-60 12 0
-61 13 0
-62 14 0
-63 15 0
-64 16 0
-65 1 0
-66 2 0
-67 3 0
-68 4 0
-69 5 0
-70 6 0
-71 7 0
-72 8 0
-73 9 0
-74 10 0
-75 11 0
-76 12 0
-77 13 0
-78 14 0
-79 15 0
-80 16 0
-1 17 33 49 65 0
-2 18 34 50 66 0
-3 19 35 51 67 0
-4 20 36 52 68 0
-5 21 37 53 69 0
-6 22 38 54 70 0
-7 23 39 55 71 0
-8 24 40 56 72 0
-9 25 41 57 73 0
-10 26 42 58 74 0
-11 27 43 59 75 0
-12 28 44 60 76 0
-13 29 45 61 77 0
-14 30 46 62 78 0
-15 31 47 63 79 0
-16 32 48 64 80 0
1 2 4 7 8 14 0
1 7 16 0
1 12 16 0
2 4 5 8 11 14 15 0
2 7 11 15 0
2 11 14 15 0
3 5 9 10 0
3 10 0
4 6 12 14 16 0
4 7 8 9 11 12 13 14 15 0
4 7 8 12 14 15 0
4 7 8 14 15 0
5 6 10 15 0
5 6 12 0
9 10 14 0
13 14 0
